<?xml version = "1.0" standalone="yes"?>
<!-- This file has been generated by DOcplex version 2.23.222  -->
<CPLEXSolution version="1.0">
 <header
   problemName="CVRP"
   objectiveValue="9698.78"
  />
 <variables>
  <variable name="x_0_2" index="1" value="1.00000"/>
  <variable name="x_0_4" index="3" value="1.00000"/>
  <variable name="x_0_6" index="5" value="1.00000"/>
  <variable name="x_0_7" index="6" value="1.00000"/>
  <variable name="x_0_10" index="9" value="1.00000"/>
  <variable name="x_0_12" index="11" value="1.00000"/>
  <variable name="x_0_13" index="12" value="1.00000"/>
  <variable name="x_0_14" index="13" value="1.00000"/>
  <variable name="x_1_0" index="15" value="1.00000"/>
  <variable name="x_2_9" index="38" value="1.00000"/>
  <variable name="x_3_0" index="45" value="1.00000"/>
  <variable name="x_4_5" index="64" value="1.00000"/>
  <variable name="x_5_0" index="75" value="1.00000"/>
  <variable name="x_6_1" index="91" value="1.00000"/>
  <variable name="x_7_0" index="105" value="1.00000"/>
  <variable name="x_8_0" index="120" value="1.00000"/>
  <variable name="x_9_0" index="135" value="1.00000"/>
  <variable name="x_10_0" index="150" value="1.00000"/>
  <variable name="x_11_15" index="179" value="1.00000"/>
  <variable name="x_12_11" index="191" value="1.00000"/>
  <variable name="x_13_3" index="198" value="1.00000"/>
  <variable name="x_14_8" index="218" value="1.00000"/>
  <variable name="x_15_0" index="225" value="1.00000"/>
  <variable name="u_1" index="240" value="68.00000"/>
  <variable name="u_2" index="241" value="36.00000"/>
  <variable name="u_3" index="242" value="73.00000"/>
  <variable name="u_4" index="243" value="29.00000"/>
  <variable name="u_5" index="244" value="70.00000"/>
  <variable name="u_6" index="245" value="17.00000"/>
  <variable name="u_7" index="246" value="41.00000"/>
  <variable name="u_8" index="247" value="75.00000"/>
  <variable name="u_9" index="248" value="66.00000"/>
  <variable name="u_10" index="249" value="55.00000"/>
  <variable name="u_11" index="250" value="32.00000"/>
  <variable name="u_12" index="251" value="13.00000"/>
  <variable name="u_13" index="252" value="34.00000"/>
  <variable name="u_14" index="253" value="65.00000"/>
  <variable name="u_15" index="254" value="73.00000"/>
 </variables>
</CPLEXSolution>
